
Gurobi 9.5.0 (win64) logging started Mon Aug 15 18:30:32 2022

Set parameter LogFile to value "C:\Users\kmajd1\Documents\NNRepLayer_v2\demos\walking_example\dynamic_constraint\repair_net_relaxed/logs/opt_log_8_15_2022_18_15_34.log"
Gurobi Optimizer version 9.5.0 build v9.5.0rc5 (win64)
Thread count: 8 physical cores, 16 logical processors, using up to 16 threads
Optimize a model with 216950 rows, 151950 columns and 3927150 nonzeros
Model fingerprint: 0x3aecf017
Model has 1250 quadratic objective terms
Variable types: 89450 continuous, 62500 integer (62500 binary)
Coefficient statistics:
  Matrix range     [4e-05, 3e+02]
  Objective range  [2e-05, 1e+00]
  QObjective range [2e-02, 2e-02]
  Bounds range     [1e-03, 1e+03]
  RHS range        [8e-06, 3e+02]

Concurrent MIP optimizer: 3 concurrent instances (2 threads per instance)

Presolve removed 3250 rows and 750 columns (presolve time = 5s) ...
Presolve removed 3250 rows and 1500 columns (presolve time = 10s) ...
Presolve removed 4000 rows and 1500 columns (presolve time = 15s) ...
Presolve removed 4000 rows and 1500 columns
Presolve time: 16.67s
Presolved: 212950 rows, 150450 columns, 3921651 nonzeros
Presolved model has 1250 quadratic objective terms
Variable types: 87950 continuous, 62500 integer (62500 binary)
Root relaxation presolve removed 62500 rows and 62500 columns (presolve time = 5s) ...
Root relaxation presolve removed 62500 rows and 62500 columns (presolve time = 10s) ...
Root relaxation presolve removed 62500 rows and 62500 columns (presolve time = 15s) ...
Root relaxation presolve removed 62500 rows and 62500 columns (presolve time = 20s) ...
Root relaxation presolve removed 62500 rows and 62500 columns
Root relaxation presolved: 150450 rows, 87950 columns, 3734151 nonzeros
Root relaxation presolved model has 1250 quadratic objective terms


Root simplex log...

Iteration    Objective       Primal Inf.    Dual Inf.      Time
       0    1.4888618e+01   0.000000e+00   0.000000e+00     46s
   32649    1.4888618e+01   2.219553e+03   0.000000e+00     50s
   61785    1.4888618e+01   5.432716e+01   0.000000e+00     55s
   65974    1.4888618e+01   0.000000e+00   0.000000e+00     56s
   65976    1.4888618e+01   0.000000e+00   0.000000e+00     57s
Extra simplex iterations after uncrush: 2

Root relaxation: objective 1.488862e+01, 65976 iterations, 34.41 seconds (73.84 work units)

    Nodes    |    Current Node    |     Objective Bounds      |     Work
 Expl Unexpl |  Obj  Depth IntInf | Incumbent    BestBd   Gap | It/Node Time

     0     0      -    -    -              -   14.88862      -     -   59s
     0     0      -    -    -              -   14.88862      -     -   75s
     0     2      -    -    -              -   14.88862      -     -  234s
     1     4      -    -    -              -   14.88862      -     -  235s
    15    18      -    -    -              -   14.88862      -     -  240s
    29    32      -    -    -              -   14.88862      -     -  529s
    31    35      -    -    -              -   14.88862      -     -  531s
    42    47      -    -    -              -   14.88862      -     -  535s
    52    57      -    -    -              -   14.88862      -     -  589s
    56    64      -    -    -              -   14.88862      -     -  592s
    72    83      -    -    -              -   14.88862      -     -  597s
    82    89      -    -    -              -   14.88862      -     -  601s
    88    97      -    -    -              -   14.88862      -     -  605s
    96   112      -    -    -              -   14.88862      -     -  611s
   111   137      -    -    -              -   14.88862      -     -  621s
   136   143      -    -    -              -   14.88862      -     -  682s
   142   171      -    -    -              -   14.88862      -     -  694s
   170   194      -    -    -              -   14.88862      -     -  740s
   193   215      -    -    -              -   14.88862      -     -  772s
   214   247      -    -    -              -   14.88862      -     -  823s
   246   280      -    -    -              -   14.88862      -     -  876s
   279   334      -    -    -              -   14.88862      -     -  932s
   333   389      -    -    -              -   14.88862      -     -  982s
   388   441      -    -    -              -   14.88862      -     - 1037s
   440   512      -    -    -              -   14.88862      -     - 1118s
   511   564      -    -    -              -   14.88862      -     - 1179s
   563   652      -    -    -              -   14.88862      -     - 1243s
   651   736      -    -    -              -   14.88862      -     - 1515s
   735   801      -    -    -              -   14.88862      -     - 1588s
   800   829      -    -    -              -   14.88862      -     - 1659s
   828   920      -    -    -              -   14.88862      -     - 1730s
   919   961      -    -    -              -   14.88862      -     - 1848s
   960  1046      -    -    -              -   14.88862      -     - 1935s
  1045  1144      -    -    -              -   14.88862      -     - 2065s
  1143  1247      -    -    -              -   14.88862      -     - 2185s
  1246  1325      -    -    -              -   14.88862      -     - 2312s
  1324  1420      -    -    -              -   14.88862      -     - 2448s
  1419  1524      -    -    -              -   14.88862      -     - 2569s
  1523  1594      -    -    -              -   14.88862      -     - 2680s
  1593  1733      -    -    -              -   14.88862      -     - 2778s
  1732  1905      -    -    -              -   14.88862      -     - 2858s
  1904  2062      -    -    -              -   14.88862      -     - 2984s
  2061  2234      -    -    -              -   14.88862      -     - 3056s
  2233  2384      -    -    -              -   14.88862      -     - 3186s
  2383  2556      -    -    -              -   14.88862      -     - 3273s
  2555  2724      -    -    -              -   14.88862      -     - 3432s
  2723  2761      -    -    -              -   14.88862      -     - 3557s
  2760  2824      -    -    -              -   14.88862      -     - 3689s
  2823  2937      -    -    -              -   14.88862      -     - 3870s
  2936  2998      -    -    -              -   14.88862      -     - 4008s
  2997  3153      -    -    -              -   14.88862      -     - 4137s
  3152  3203      -    -    -              -   14.88862      -     - 4266s
  3202  3210      -    -    -              -   14.88862      -     - 4437s
  3209  3230      -    -    -              -   14.88862      -     - 4551s
  3229  3251      -    -    -              -   14.88862      -     - 4715s
  3250  3339      -    -    -              -   14.88862      -     - 4943s
  3338  3427      -    -    -              -   14.88862      -     - 5086s
  3426  3483      -    -    -              -   14.88862      -     - 5297s
  3482  3509      -    -    -              -   14.88862      -     - 5547s
  3508  3530      -    -    -              -   14.88862      -     - 5768s
  3529  3559      -    -    -              -   14.88862      -     - 6014s
  3558  3575      -    -    -              -   14.88862      -     - 6232s
  3574  3631      -    -    -              -   14.88862      -     - 6514s
  3631  3632      -    -    -              -   14.88862      -     - 6595s
  3632  3633      -    -    -              -   14.88862      -     - 6601s
  3633  3633      -    -    -              -   14.88862      -     - 6664s
  3635  3635      -    -    -              -   14.88862      -     - 7543s
  3636  3638      -    -    -              -   14.88862      -     - 8463s
  3640  3641      -    -    -              -   14.88862      -     - 8465s
  3646  3647      -    -    -              -   14.88862      -     - 8470s
  3658  3655      -    -    -              -   14.88862      -     - 8476s
  3669  3661      -    -    -              -   14.88862      -     - 8481s
  3675  3665      -    -    -              -   14.88862      -     - 8485s
  3678  3668      -    -    -              -   14.88862      -     - 8494s
  3682  3671      -    -    -              -   14.88862      -     - 8496s
  3690  3677      -    -    -              -   14.88862      -     - 8502s
  3699  3682      -    -    -              -   14.88862      -     - 8507s
  3703  3684      -    -    -              -   14.88862      -     - 8510s
  3710  3690      -    -    -              -   14.88862      -     - 8570s
  3719  3696      -    -    -              -   14.88862      -     - 8575s
  3730  3706      -    -    -              -   14.88862      -     - 8582s
  3737  3707      -    -    -              -   14.88862      -     - 8586s
  3740  3711      -    -    -              -   14.88862      -     - 8590s
  3745  3713      -    -    -              -   14.88862      -     - 8612s
  3749  3720      -    -    -              -   14.88862      -     - 8619s
  3757  3723      -    -    -              -   14.88862      -     - 8626s
  3763  3729      -    -    -              -   14.88862      -     - 8634s
  3771  3731      -    -    -              -   14.88862      -     - 9019s
  3776  3737      -    -    -              -   14.88862      -     - 9037s
  3783  3742      -    -    -              -   14.88862      -     - 9045s
  3791  3746      -    -    -              -   14.88862      -     - 9052s
  3797  3752      -    -    -              -   14.88862      -     - 9059s
  3805  3755      -    -    -              -   14.88862      -     - 9072s
  3811  3760      -    -    -              -   14.88862      -     - 9079s
  3818  3766      -    -    -              -   14.88862      -     - 9088s
  3826  3769      -    -    -              -   14.88862      -     - 9097s
  3832  3777      -    -    -              -   14.88862      -     - 9107s
  3842  3784      -    -    -              -   14.88862      -     - 9114s
  3852  3788      -    -    -              -   14.88862      -     - 9128s
  3860  3798      -    -    -              -   14.88862      -     - 9137s
  3872  3804      -    -    -              -   14.88862      -     - 9154s
  3882  3813      -    -    -              -   14.88862      -     - 9163s
  3895  3821      -    -    -              -   14.88862      -     - 9181s
  3907  3824      -    -    -              -   14.88862      -     - 9196s
  3914  3836      -    -    -              -   14.88862      -     - 9208s
  3928  3842      -    -    -              -   14.88862      -     - 9221s
  3939  3849      -    -    -              -   14.88862      -     - 9254s
  3950  3862      -    -    -              -   14.88862      -     - 9273s
  3966  3859      -    -    -              -   14.88862      -     - 9285s
  3969  3870      -    -    -              -   14.88862      -     - 9296s
  3981  3871      -    -    -              -   14.88862      -     - 9315s
  3986  3877      -    -    -              -   14.88862      -     - 9342s
  3993  3886      -    -    -              -   14.88862      -     - 9361s
  4005  3891      -    -    -              -   14.88862      -     - 9389s
  4014  3900      -    -    -              -   14.88862      -     - 9429s
  4026  3909      -    -    -              -   14.88862      -     - 9479s
  4039  3924      -    -    -              -   14.88862      -     - 9500s
  4058  3938      -    -    -              -   14.88862      -     - 9525s
  4078  3955      -    -    -              -   14.88862      -     - 9550s
  4102  3960      -    -    -              -   14.88862      -     - 9588s
  4115  3972      -    -    -              -   14.88862      -     - 9618s
  4131  3978      -    -    -              -   14.88862      -     - 9673s
  4143  3992      -    -    -              -   14.88862      -     - 9697s
  4161  4008      -    -    -              -   14.88862      -     - 9731s
  4183  4018      -    -    -              -   14.88862      -     - 9761s
  4200  4035      -    -    -              -   14.88862      -     - 9819s
  4223  4043      -    -    -              -   14.88862      -     - 9856s
  4238  4064      -    -    -              -   14.88862      -     - 9896s
  4264  4082      -    -    -              -   14.88862      -     - 9927s
  4291  4102      -    -    -              -   14.88862      -     - 9957s
  4320  4111      -    -    -              -   14.88862      -     - 9995s
  4339  4127      -    -    -              -   14.88862      -     - 10027s
  4361  4145      -    -    -              -   14.88862      -     - 10077s
  4386  4164      -    -    -              -   14.88862      -     - 10117s
  4414  4179      -    -    -              -   14.88862      -     - 10175s
  4438  4197      -    -    -              -   14.88862      -     - 10222s
  4464  4216      -    -    -              -   14.88862      -     - 10270s
  4492  4225      -    -    -              -   14.88862      -     - 10322s
  4510  4257      -    -    -              -   14.88862      -     - 10378s
  4548  4276      -    -    -              -   14.88862      -     - 10421s
  4580  4310      -    -    -              -   14.88862      -     - 10476s
  4624  4343      -    -    -              -   14.88862      -     - 10538s
  4672  4373      -    -    -              -   14.88862      -     - 10590s
  4718  4387      -    -    -              -   14.88862      -     - 10639s
  4747  4424      -    -    -              -   14.88862      -     - 10698s
  4794  4434      -    -    -              -   14.88862      -     - 10751s
  4820  4464      -    -    -              -   14.88862      -     - 10825s
  4858  4502      -    -    -              -   14.88862      -     - 10880s
  4909  4529      -    -    -              -   14.88862      -     - 10941s
  4953  4551      -    -    -              -   14.88862      -     - 11004s
  4990  4577      -    -    -              -   14.88862      -     - 11075s
  5028  4600      -    -    -              -   14.88862      -     - 11184s
  5064  4624      -    -    -              -   14.88862      -     - 11307s
  5100  4657      -    -    -              -   14.88862      -     - 11416s
  5145  4683      -    -    -              -   14.88862      -     - 11524s
  5186  4700      -    -    -              -   14.88862      -     - 11619s
  5216  4732      -    -    -              -   14.88862      -     - 11732s
  5258  4764      -    -    -              -   14.88862      -     - 11854s
  5304  4804      -    -    -              -   14.88862      -     - 11994s
  5360  4863      -    -    -              -   14.88862      -     - 12110s
  5437  4891      -    -    -              -   14.88862      -     - 12235s
  5491  4916      -    -    -              -   14.88862      -     - 12346s
  5534  4965      -    -    -              -   14.88862      -     - 12490s
  5597  5005      -    -    -              -   14.88862      -     - 12624s
  5658  5096      -    -    -              -   14.88862      -     - 12778s
  5770  5119      -    -    -              -   14.88862      -     - 12948s
  5830  5195      -    -    -              -   14.88862      -     - 13133s
  5926  5293      -    -    -              -   14.88862      -     - 13301s
  6056  5412      -    -    -              -   14.88862      -     - 13458s
  6218  5510      -    -    -              -   14.88862      -     - 13619s
  6370  5631      -    -    -              -   14.88862      -     - 13754s
  6456  5602      -    -    -              -   14.88862      -     - 13755s
  6542  5746      -    -    -              -   14.88862      -     - 13889s
  6714  5860      -    -    -              -   14.88862      -     - 14053s
  6886  5954      -    -    -              -   14.88862      -     - 14211s
  7037  6019      -    -    -              -   14.88862      -     - 14393s
  7152  6145      -    -    -              -   14.88862      -     - 14566s
  7317  6225      -    -    -              -   14.88862      -     - 14898s
  7452  6351      -    -    -              -   14.88862      -     - 15143s
  7623  6436      -    -    -              -   14.88862      -     - 15375s
  7765  6536      -    -    -              -   14.88862      -     - 15605s
  7912  6582      -    -    -              -   14.88862      -     - 15925s
  8007  6648      -    -    -              -   14.88862      -     - 16190s
  8105  6731      -    -    -              -   14.88862      -     - 16426s
  8220  6770      -    -    -              -   14.88862      -     - 16734s
  8289  6747      -    -    -              -   14.88862      -     - 16735s
  8298  6866      -    -    -              -   14.88862      -     - 17031s
  8420  6953      -    -    -              -   14.88862      -     - 17355s
  8547  7001      -    -    -              -   14.88862      -     - 17728s
  8638  7047      -    -    -              -   14.88862      -     - 18143s
  8714  7113      -    -    -              -   14.88862      -     - 18550s
  8805  7138      -    -    -              -   14.88862      -     - 18967s
  8861  7191      -    -    -              -   14.88862      -     - 19418s
  8932  7307      -    -    -              -   14.88862      -     - 19878s
  9072  7322      -    -    -              -   14.88862      -     - 20364s
  9134  7409      -    -    -              -   14.88862      -     - 20755s
  9241  7375      -    -    -              -   14.88931      -     - 21661s
  9243  7431      -    -    -              -   14.89100      -     - 22080s
  9300  7569      -    -    -              -   14.89100      -     - 22643s
  9457  7684      -    -    -              -   14.89100      -     - 23040s
  9624  7688      -    -    -              -   14.89100      -     - 23443s
  9684  7710      -    -    -              -   14.89100      -     - 23918s
  9726  7763      -    -    -              -   14.89100      -     - 24355s
  9793  7779      -    -    -              -   14.89100      -     - 24998s
  9831  7867      -    -    -              -   14.89100      -     - 25512s
  9932  8006      -    -    -              -   14.89100      -     - 25735s
 10104  8120      -    -    -              -   14.89100      -     - 25999s
 10276  8232      -    -    -              -   14.89100      -     - 26423s
 10445  8348      -    -    -              -   14.89100      -     - 26799s
 10617  8416      -    -    -              -   14.89100      -     - 27399s
 10743  8546      -    -    -              -   14.89100      -     - 27740s
 10915  8661      -    -    -              -   14.89100      -     - 27991s
 11087  8776      -    -    -              -   14.89100      -     - 28317s
 11259  8890      -    -    -              -   14.89100      -     - 28611s
 11431  8999      -    -    -              -   14.89100      -     - 28997s
 11597  9116      -    -    -              -   14.89100      -     - 29260s
 11769  9229      -    -    -              -   14.89100      -     - 29648s
 11940  9344      -    -    -              -   14.89100      -     - 29927s
 12112  9459      -    -    -              -   14.89100      -     - 30144s
 12284  9574      -    -    -              -   14.89100      -     - 30428s
 12456  9650      -    -    -              -   14.89100      -     - 30863s
 12590  9778      -    -    -              -   14.89100      -     - 31187s
 12762  9868      -    -    -              -   14.89100      -     - 31558s
 12910  9991      -    -    -              -   14.89100      -     - 31869s
 13082 10066      -    -    -              -   14.89100      -     - 32406s
 13214 10194      -    -    -              -   14.89100      -     - 32648s
 13386 10308      -    -    -              -   14.89100      -     - 32951s
 13558 10423      -    -    -              -   14.89100      -     - 33280s
 13730 10534      -    -    -              -   14.89100      -     - 33623s
 13898 10650      -    -    -              -   14.89100      -     - 33943s
 14070 10764      -    -    -              -   14.89100      -     - 34244s
 14242 10879      -    -    -              -   14.89100      -     - 34524s
 14414 10994      -    -    -              -   14.89100      -     - 34791s
 14586 11112      -    -    -              -   14.89100      -     - 35276s
 14746 11115      -    -    -              -   14.89100      -     - 36220s
 14749 11287      -    -    -              -   14.89100      -     - 36418s
 14921 11384      -    -    -              -   14.89100      -     - 36658s
 15018 11538      -    -    -              -   14.89100      -     - 36924s
 15172 11710      -    -    -              -   14.89100      -     - 37148s
 15344 11827      -    -    -              -   14.89100      -     - 37417s
 15461 11966      -    -    -              -   14.89100      -     - 37640s
 15600 12138      -    -    -              -   14.89100      -     - 37897s
 15772 12290      -    -    -              -   14.89100      -     - 38160s
 15924 12412      -    -    -              -   14.89100      -     - 38400s
 16046 12552      -    -    -              -   14.89100      -     - 38652s
 16186 12690      -    -    -              -   14.89100      -     - 38926s
 16324 12834      -    -    -              -   14.89100      -     - 39194s
 16468 12998      -    -    -              -   14.89100      -     - 39459s
 16632 13160      -    -    -              -   14.89100      -     - 39754s
 16794 13300      -    -    -              -   14.89100      -     - 40029s
 16934 13454      -    -    -              -   14.89100      -     - 40274s
 17088 13556      -    -    -              -   14.89100      -     - 40527s
 17190 13723      -    -    -              -   14.89100      -     - 40783s
 17357 13860      -    -    -              -   14.89100      -     - 41055s
 17494 14018      -    -    -              -   14.89100      -     - 41296s
 17652 14183      -    -    -              -   14.89100      -     - 41552s
 17817 14306      -    -    -              -   14.89100      -     - 41817s
 17940 14432      -    -    -              -   14.89100      -     - 42153s
 18066 14540      -    -    -              -   14.89100      -     - 42385s
 18174 14678      -    -    -              -   14.89100      -     - 42656s
 18312 14809      -    -    -              -   14.89100      -     - 42903s
 18443 14950      -    -    -              -   14.89100      -     - 43124s
 18584 15078      -    -    -              -   14.89100      -     - 43358s
 18712 15200      -    -    -              -   14.89100      -     - 43613s
 18834 15316      -    -    -              -   14.89100      -     - 43894s
 18950 15450      -    -    -              -   14.89100      -     - 44136s
 19084 15582      -    -    -              -   14.89100      -     - 44426s
 19216 15710      -    -    -              -   14.89100      -     - 44684s
 19344 15816      -    -    -              -   14.89100      -     - 45029s
 19450 15938      -    -    -              -   14.89100      -     - 45302s
 19572 16060      -    -    -              -   14.89100      -     - 45576s
 19694 16194      -    -    -              -   14.89100      -     - 45832s
 19828 16312      -    -    -              -   14.89100      -     - 46126s
 19946 16444      -    -    -              -   14.89100      -     - 46419s
 20078 16574      -    -    -              -   14.89100      -     - 46686s
 20208 16730      -    -    -              -   14.89100      -     - 46963s
 20364 16870      -    -    -              -   14.89100      -     - 47241s
 20504 17012      -    -    -              -   14.89100      -     - 47520s
 20646 17158      -    -    -              -   14.89100      -     - 47793s
 20792 17292      -    -    -              -   14.89100      -     - 48059s
 20926 17428      -    -    -              -   14.89100      -     - 48335s
 21062 17547      -    -    -              -   14.89100      -     - 48628s
 21181 17683      -    -    -              -   14.89100      -     - 48904s
 21317 17823      -    -    -              -   14.89100      -     - 49175s
 21457 17960      -    -    -              -   14.89100      -     - 49435s
 21594 18087      -    -    -              -   14.89100      -     - 49713s
 21721 18242      -    -    -              -   14.89100      -     - 49984s
 21876 18244      -    -    -              -   14.89100      -     - 51199s
 21878 18416      -    -    -              -   14.89100      -     - 51540s
 22050 18571      -    -    -              -   14.89100      -     - 51803s
 22205 18672      -    -    -              -   14.89100      -     - 52067s
 22306 18826      -    -    -              -   14.89100      -     - 52330s
 22460 18956      -    -    -              -   14.89100      -     - 52591s
 22590 19090      -    -    -              -   14.89100      -     - 52882s
 22724 19234      -    -    -              -   14.89100      -     - 53467s
 22868 19366      -    -    -              -   14.89100      -     - 53773s
 23000 19496      -    -    -              -   14.89100      -     - 54515s
 23130 19668      -    -    -              -   14.89100      -     - 54795s
 23302 19814      -    -    -              -   14.89100      -     - 55249s
 23448 19986      -    -    -              -   14.89100      -     - 55485s
 23620 20158      -    -    -              -   14.89100      -     - 55734s
 23792 20330      -    -    -              -   14.89100      -     - 56023s
 23964 20502      -    -    -              -   14.89100      -     - 56294s
 24136 20672      -    -    -              -   14.89100      -     - 56598s
 24306 20844      -    -    -              -   14.89100      -     - 56839s
 24478 21004      -    -    -              -   14.89100      -     - 57092s
 24638 21176      -    -    -              -   14.89100      -     - 57354s
 24810 21310      -    -    -              -   14.89100      -     - 57628s
 24944 21440      -    -    -              -   14.89100      -     - 57921s
 25074 21524      -    -    -              -   14.89100      -     - 58093s

Explored 25158 nodes (89710533 simplex iterations) in 58131.16 seconds (121803.95 work units)
Thread count was 2 (of 16 available processors)

Solution count 0

Solve interrupted
Best objective -, best bound 1.489100350569e+01, gap -
